c nIsolatedPIs 98
c maxPI 49
p cnf 585 1609
c gate 50 -10 -29 0
-10 -50 0
-29 -50 0
10 29 50 0
c gate 51 -24 50 0
-24 -51 0
50 -51 0
24 -50 51 0
c gate 52 -25 -34 0
-25 -52 0
-34 -52 0
25 34 52 0
c gate 53 -36 52 0
-36 -53 0
52 -53 0
36 -52 53 0
c gate 54 51 53 0
51 -54 0
53 -54 0
-51 -53 54 0
c gate 55 -6 -44 0
-6 -55 0
-44 -55 0
6 44 55 0
c gate 56 6 44 0
6 -56 0
44 -56 0
-6 -44 56 0
c gate 57 -55 -56 0
-55 -57 0
-56 -57 0
55 56 57 0
c gate 58 -34 -44 0
-34 -58 0
-44 -58 0
34 44 58 0
c gate 59 -36 58 0
-36 -59 0
58 -59 0
36 -58 59 0
c gate 60 34 44 0
34 -60 0
44 -60 0
-34 -44 60 0
c gate 61 -24 -60 0
-24 -61 0
-60 -61 0
24 60 61 0
c gate 62 -59 -61 0
-59 -62 0
-61 -62 0
59 61 62 0
c gate 63 36 -58 0
36 -63 0
-58 -63 0
-36 58 63 0
c gate 64 -25 50 0
-25 -64 0
50 -64 0
25 -50 64 0
c gate 65 -63 64 0
-63 -65 0
64 -65 0
63 -64 65 0
c gate 66 -62 65 0
-62 -66 0
65 -66 0
62 -65 66 0
c gate 67 51 59 0
51 -67 0
59 -67 0
-51 -59 67 0
c gate 68 -66 -67 0
-66 -68 0
-67 -68 0
66 67 68 0
c gate 69 -3 68 0
-3 -69 0
68 -69 0
3 -68 69 0
c gate 70 3 -6 0
3 -70 0
-6 -70 0
-3 6 70 0
c gate 71 -5 54 0
-5 -71 0
54 -71 0
5 -54 71 0
c gate 72 -70 71 0
-70 -72 0
71 -72 0
70 -71 72 0
c gate 73 70 -71 0
70 -73 0
-71 -73 0
-70 71 73 0
c gate 74 -72 -73 0
-72 -74 0
-73 -74 0
72 73 74 0
c gate 75 3 74 0
3 -75 0
74 -75 0
-3 -74 75 0
c gate 76 -3 -47 0
-3 -76 0
-47 -76 0
3 47 76 0
c gate 77 -49 76 0
-49 -77 0
76 -77 0
49 -76 77 0
c gate 78 -74 -77 0
-74 -78 0
-77 -78 0
74 77 78 0
c gate 79 -3 78 0
-3 -79 0
78 -79 0
3 -78 79 0
c gate 80 -75 -79 0
-75 -80 0
-79 -80 0
75 79 80 0
c gate 81 54 -80 0
54 -81 0
-80 -81 0
-54 80 81 0
c gate 82 -69 -81 0
-69 -82 0
-81 -82 0
69 81 82 0
c gate 83 -57 -82 0
-57 -83 0
-82 -83 0
57 82 83 0
c gate 84 -44 -78 0
-44 -84 0
-78 -84 0
44 78 84 0
c gate 85 -54 84 0
-54 -85 0
84 -85 0
54 -84 85 0
c gate 86 54 -84 0
54 -86 0
-84 -86 0
-54 84 86 0
c gate 87 -85 -86 0
-85 -87 0
-86 -87 0
85 86 87 0
c gate 88 44 78 0
44 -88 0
78 -88 0
-44 -78 88 0
c gate 89 -87 -88 0
-87 -89 0
-88 -89 0
87 88 89 0
c gate 90 6 -89 0
6 -90 0
-89 -90 0
-6 89 90 0
c gate 91 -6 -68 0
-6 -91 0
-68 -91 0
6 68 91 0
c gate 92 -3 -55 0
-3 -92 0
-55 -92 0
3 55 92 0
c gate 93 -91 92 0
-91 -93 0
92 -93 0
91 -92 93 0
c gate 94 -90 93 0
-90 -94 0
93 -94 0
90 -93 94 0
c gate 95 -83 -94 0
-83 -95 0
-94 -95 0
83 94 95 0
c gate 96 -68 85 0
-68 -96 0
85 -96 0
68 -85 96 0
c gate 97 6 68 0
6 -97 0
68 -97 0
-6 -68 97 0
c gate 98 78 -91 0
78 -98 0
-91 -98 0
-78 91 98 0
c gate 99 -97 -98 0
-97 -99 0
-98 -99 0
97 98 99 0
c gate 100 -96 99 0
-96 -100 0
99 -100 0
96 -99 100 0
c gate 101 3 -100 0
3 -101 0
-100 -101 0
-3 100 101 0
c gate 102 95 -101 0
95 -102 0
-101 -102 0
-95 101 102 0
c gate 103 54 -102 0
54 -103 0
-102 -103 0
-54 102 103 0
c gate 104 49 -102 0
49 -104 0
-102 -104 0
-49 102 104 0
c gate 105 -44 48 0
-44 -105 0
48 -105 0
44 -48 105 0
c gate 106 -84 -105 0
-84 -106 0
-105 -106 0
84 105 106 0
c gate 107 -32 -33 0
-32 -107 0
-33 -107 0
32 33 107 0
c gate 108 -30 107 0
-30 -108 0
107 -108 0
30 -107 108 0
c gate 109 30 -107 0
30 -109 0
-107 -109 0
-30 107 109 0
c gate 110 32 33 0
32 -110 0
33 -110 0
-32 -33 110 0
c gate 111 24 -110 0
24 -111 0
-110 -111 0
-24 110 111 0
c gate 112 -109 111 0
-109 -112 0
111 -112 0
109 -111 112 0
c gate 113 -108 -112 0
-108 -113 0
-112 -113 0
108 112 113 0
c gate 114 25 -113 0
25 -114 0
-113 -114 0
-25 113 114 0
c gate 115 -25 -108 0
-25 -115 0
-108 -115 0
25 108 115 0
c gate 116 -24 -25 0
-24 -116 0
-25 -116 0
24 25 116 0
c gate 117 6 -116 0
6 -117 0
-116 -117 0
-6 116 117 0
c gate 118 -115 117 0
-115 -118 0
117 -118 0
115 -117 118 0
c gate 119 -114 118 0
-114 -119 0
118 -119 0
114 -118 119 0
c gate 120 -106 119 0
-106 -120 0
119 -120 0
106 -119 120 0
c gate 121 6 106 0
6 -121 0
106 -121 0
-6 -106 121 0
c gate 122 -48 55 0
-48 -122 0
55 -122 0
48 -55 122 0
c gate 123 -80 122 0
-80 -123 0
122 -123 0
80 -122 123 0
c gate 124 -121 -123 0
-121 -124 0
-123 -124 0
121 123 124 0
c gate 125 -44 -47 0
-44 -125 0
-47 -125 0
44 47 125 0
c gate 126 -26 -44 0
-26 -126 0
-44 -126 0
26 44 126 0
c gate 127 119 -126 0
119 -127 0
-126 -127 0
-119 126 127 0
c gate 128 -125 -127 0
-125 -128 0
-127 -128 0
125 127 128 0
c gate 129 -124 128 0
-124 -129 0
128 -129 0
124 -128 129 0
c gate 130 -120 -129 0
-120 -130 0
-129 -130 0
120 129 130 0
c gate 131 -102 -130 0
-102 -131 0
-130 -131 0
102 130 131 0
c gate 132 26 -119 0
26 -132 0
-119 -132 0
-26 119 132 0
c gate 133 -121 132 0
-121 -133 0
132 -133 0
121 -132 133 0
c gate 134 102 133 0
102 -134 0
133 -134 0
-102 -133 134 0
c gate 135 -123 134 0
-123 -135 0
134 -135 0
123 -134 135 0
c gate 136 -131 -135 0
-131 -136 0
-135 -136 0
131 135 136 0
c gate 137 -3 -124 0
-3 -137 0
-124 -137 0
3 124 137 0
c gate 138 -136 137 0
-136 -138 0
137 -138 0
136 -137 138 0
c gate 139 -36 138 0
-36 -139 0
138 -139 0
36 -138 139 0
c gate 140 27 102 0
27 -140 0
102 -140 0
-27 -102 140 0
c gate 141 124 140 0
124 -141 0
140 -141 0
-124 -140 141 0
c gate 142 3 141 0
3 -142 0
141 -142 0
-3 -141 142 0
c gate 143 -27 137 0
-27 -143 0
137 -143 0
27 -137 143 0
c gate 144 -95 143 0
-95 -144 0
143 -144 0
95 -143 144 0
c gate 145 -142 -144 0
-142 -145 0
-144 -145 0
142 144 145 0
c gate 146 36 136 0
36 -146 0
136 -146 0
-36 -136 146 0
c gate 147 -145 146 0
-145 -147 0
146 -147 0
145 -146 147 0
c gate 148 3 36 0
3 -148 0
36 -148 0
-3 -36 148 0
c gate 149 -36 -137 0
-36 -149 0
-137 -149 0
36 137 149 0
c gate 150 -102 149 0
-102 -150 0
149 -150 0
102 -149 150 0
c gate 151 -141 -150 0
-141 -151 0
-150 -151 0
141 150 151 0
c gate 152 -148 -151 0
-148 -152 0
-151 -152 0
148 151 152 0
c gate 153 -147 -152 0
-147 -153 0
-152 -153 0
147 152 153 0
c gate 154 -139 153 0
-139 -154 0
153 -154 0
139 -153 154 0
c gate 155 -68 154 0
-68 -155 0
154 -155 0
68 -154 155 0
c gate 156 104 155 0
104 -156 0
155 -156 0
-104 -155 156 0
c gate 157 -49 -154 0
-49 -157 0
-154 -157 0
49 154 157 0
c gate 158 -27 -49 0
-27 -158 0
-49 -158 0
27 49 158 0
c gate 159 54 -158 0
54 -159 0
-158 -159 0
-54 158 159 0
c gate 160 27 49 0
27 -160 0
49 -160 0
-27 -49 160 0
c gate 161 -159 -160 0
-159 -161 0
-160 -161 0
159 160 161 0
c gate 162 -157 161 0
-157 -162 0
161 -162 0
157 -161 162 0
c gate 163 68 -162 0
68 -163 0
-162 -163 0
-68 162 163 0
c gate 164 -49 54 0
-49 -164 0
54 -164 0
49 -54 164 0
c gate 165 27 -164 0
27 -165 0
-164 -165 0
-27 164 165 0
c gate 166 155 -165 0
155 -166 0
-165 -166 0
-155 165 166 0
c gate 167 102 -166 0
102 -167 0
-166 -167 0
-102 166 167 0
c gate 168 -163 167 0
-163 -168 0
167 -168 0
163 -167 168 0
c gate 169 -156 -168 0
-156 -169 0
-168 -169 0
156 168 169 0
c gate 170 24 169 0
24 -170 0
169 -170 0
-24 -169 170 0
c gate 171 103 170 0
103 -171 0
170 -171 0
-103 -170 171 0
c gate 172 -24 -169 0
-24 -172 0
-169 -172 0
24 169 172 0
c gate 173 -54 -172 0
-54 -173 0
-172 -173 0
54 172 173 0
c gate 174 102 -170 0
102 -174 0
-170 -174 0
-102 170 174 0
c gate 175 -173 174 0
-173 -175 0
174 -175 0
173 -174 175 0
c gate 176 -171 -175 0
-171 -176 0
-175 -176 0
171 175 176 0
c gate 177 25 -176 0
25 -177 0
-176 -177 0
-25 176 177 0
c gate 178 -54 102 0
-54 -178 0
102 -178 0
54 -102 178 0
c gate 179 -103 116 0
-103 -179 0
116 -179 0
103 -116 179 0
c gate 180 -178 179 0
-178 -180 0
179 -180 0
178 -179 180 0
c gate 181 -169 180 0
-169 -181 0
180 -181 0
169 -180 181 0
c gate 182 -177 -181 0
-177 -182 0
-181 -182 0
177 181 182 0
c gate 183 36 -182 0
36 -183 0
-182 -183 0
-36 182 183 0
c gate 184 116 178 0
116 -184 0
178 -184 0
-116 -178 184 0
c gate 185 24 25 0
24 -185 0
25 -185 0
-24 -25 185 0
c gate 186 -116 -185 0
-116 -186 0
-185 -186 0
116 185 186 0
c gate 187 103 -186 0
103 -187 0
-186 -187 0
-103 186 187 0
c gate 188 -169 187 0
-169 -188 0
187 -188 0
169 -187 188 0
c gate 189 -184 -188 0
-184 -189 0
-188 -189 0
184 188 189 0
c gate 190 -36 -189 0
-36 -190 0
-189 -190 0
36 189 190 0
c gate 191 36 104 0
36 -191 0
104 -191 0
-36 -104 191 0
c gate 192 -140 -191 0
-140 -192 0
-191 -192 0
140 191 192 0
c gate 193 -68 -192 0
-68 -193 0
-192 -193 0
68 192 193 0
c gate 194 169 -193 0
169 -194 0
-193 -194 0
-169 193 194 0
c gate 195 -169 193 0
-169 -195 0
193 -195 0
169 -193 195 0
c gate 196 -194 -195 0
-194 -196 0
-195 -196 0
194 195 196 0
c gate 197 6 -130 0
6 -197 0
-130 -197 0
-6 130 197 0
c gate 198 -134 -197 0
-134 -198 0
-197 -198 0
134 197 198 0
c gate 199 3 106 0
3 -199 0
106 -199 0
-3 -106 199 0
c gate 200 198 199 0
198 -200 0
199 -200 0
-198 -199 200 0
c gate 201 6 -200 0
6 -201 0
-200 -201 0
-6 200 201 0
c gate 202 25 -201 0
25 -202 0
-201 -202 0
-25 201 202 0
c gate 203 -3 -25 0
-3 -203 0
-25 -203 0
3 25 203 0
c gate 204 121 203 0
121 -204 0
203 -204 0
-121 -203 204 0
c gate 205 -198 204 0
-198 -205 0
204 -205 0
198 -204 205 0
c gate 206 -202 -205 0
-202 -206 0
-205 -206 0
202 205 206 0
c gate 207 -68 -206 0
-68 -207 0
-206 -207 0
68 206 207 0
c gate 208 -3 6 0
-3 -208 0
6 -208 0
3 -6 208 0
c gate 209 -124 -208 0
-124 -209 0
-208 -209 0
124 208 209 0
c gate 210 -84 -97 0
-84 -210 0
-97 -210 0
84 97 210 0
c gate 211 209 210 0
209 -211 0
210 -211 0
-209 -210 211 0
c gate 212 136 211 0
136 -212 0
211 -212 0
-136 -211 212 0
c gate 213 6 136 0
6 -213 0
136 -213 0
-6 -136 213 0
c gate 214 -68 -209 0
-68 -214 0
-209 -214 0
68 209 214 0
c gate 215 -213 214 0
-213 -215 0
214 -215 0
213 -214 215 0
c gate 216 -212 -215 0
-212 -216 0
-215 -216 0
212 215 216 0
c gate 217 25 -216 0
25 -217 0
-216 -217 0
-25 216 217 0
c gate 218 66 138 0
66 -218 0
138 -218 0
-66 -138 218 0
c gate 219 -217 -218 0
-217 -219 0
-218 -219 0
217 218 219 0
c gate 220 -207 219 0
-207 -220 0
219 -220 0
207 -219 220 0
c gate 221 207 -219 0
207 -221 0
-219 -221 0
-207 219 221 0
c gate 222 -220 -221 0
-220 -222 0
-221 -222 0
220 221 222 0
c gate 223 -119 137 0
-119 -223 0
137 -223 0
119 -137 223 0
c gate 224 -24 124 0
-24 -224 0
124 -224 0
24 -124 224 0
c gate 225 24 119 0
24 -225 0
119 -225 0
-24 -119 225 0
c gate 226 -224 -225 0
-224 -226 0
-225 -226 0
224 225 226 0
c gate 227 -223 226 0
-223 -227 0
226 -227 0
223 -226 227 0
c gate 228 -68 227 0
-68 -228 0
227 -228 0
68 -227 228 0
c gate 229 -23 102 0
-23 -229 0
102 -229 0
23 -102 229 0
c gate 230 -23 119 0
-23 -230 0
119 -230 0
23 -119 230 0
c gate 231 -25 -230 0
-25 -231 0
-230 -231 0
25 230 231 0
c gate 232 -229 -231 0
-229 -232 0
-231 -232 0
229 231 232 0
c gate 233 228 -232 0
228 -233 0
-232 -233 0
-228 232 233 0
c gate 234 -25 -102 0
-25 -234 0
-102 -234 0
25 102 234 0
c gate 235 -119 -234 0
-119 -235 0
-234 -235 0
119 234 235 0
c gate 236 -102 228 0
-102 -236 0
228 -236 0
102 -228 236 0
c gate 237 235 -236 0
235 -237 0
-236 -237 0
-235 236 237 0
c gate 238 -233 -237 0
-233 -238 0
-237 -238 0
233 237 238 0
c gate 239 -119 229 0
-119 -239 0
229 -239 0
119 -229 239 0
c gate 240 -68 -239 0
-68 -240 0
-239 -240 0
68 239 240 0
c gate 241 -238 240 0
-238 -241 0
240 -241 0
238 -240 241 0
c gate 242 23 -119 0
23 -242 0
-119 -242 0
-23 119 242 0
c gate 243 -25 -242 0
-25 -243 0
-242 -243 0
25 242 243 0
c gate 244 23 25 0
23 -244 0
25 -244 0
-23 -25 244 0
c gate 245 68 -244 0
68 -245 0
-244 -245 0
-68 244 245 0
c gate 246 -243 245 0
-243 -246 0
245 -246 0
243 -245 246 0
c gate 247 102 246 0
102 -247 0
246 -247 0
-102 -246 247 0
c gate 248 -241 -247 0
-241 -248 0
-247 -248 0
241 247 248 0
c gate 249 -24 -121 0
-24 -249 0
-121 -249 0
24 121 249 0
c gate 250 -68 -249 0
-68 -250 0
-249 -250 0
68 249 250 0
c gate 251 6 -227 0
6 -251 0
-227 -251 0
-6 227 251 0
c gate 252 250 -251 0
250 -252 0
-251 -252 0
-250 251 252 0
c gate 253 -235 -252 0
-235 -253 0
-252 -253 0
235 252 253 0
c gate 254 119 244 0
119 -254 0
244 -254 0
-119 -244 254 0
c gate 255 240 -254 0
240 -255 0
-254 -255 0
-240 254 255 0
c gate 256 -253 255 0
-253 -256 0
255 -256 0
253 -255 256 0
c gate 257 248 -256 0
248 -257 0
-256 -257 0
-248 256 257 0
c gate 258 -248 256 0
-248 -258 0
256 -258 0
248 -256 258 0
c gate 259 -257 -258 0
-257 -259 0
-258 -259 0
257 258 259 0
c gate 260 57 -68 0
57 -260 0
-68 -260 0
-57 68 260 0
c gate 261 75 260 0
75 -261 0
260 -261 0
-75 -260 261 0
c gate 262 -3 -68 0
-3 -262 0
-68 -262 0
3 68 262 0
c gate 263 -73 -262 0
-73 -263 0
-262 -263 0
73 262 263 0
c gate 264 -261 263 0
-261 -264 0
263 -264 0
261 -263 264 0
c gate 265 -198 -264 0
-198 -265 0
-264 -265 0
198 264 265 0
c gate 266 88 208 0
88 -266 0
208 -266 0
-88 -208 266 0
c gate 267 136 -266 0
136 -267 0
-266 -267 0
-136 266 267 0
c gate 268 -265 267 0
-265 -268 0
267 -268 0
265 -267 268 0
c gate 269 -136 264 0
-136 -269 0
264 -269 0
136 -264 269 0
c gate 270 265 -267 0
265 -270 0
-267 -270 0
-265 267 270 0
c gate 271 -269 -270 0
-269 -271 0
-270 -271 0
269 270 271 0
c gate 272 -268 271 0
-268 -272 0
271 -272 0
268 -271 272 0
c gate 273 -17 -37 0
-17 -273 0
-37 -273 0
17 37 273 0
c gate 274 -18 -22 0
-18 -274 0
-22 -274 0
18 22 274 0
c gate 275 -7 -16 0
-7 -275 0
-16 -275 0
7 16 275 0
c gate 276 7 16 0
7 -276 0
16 -276 0
-7 -16 276 0
c gate 277 -18 276 0
-18 -277 0
276 -277 0
18 -276 277 0
c gate 278 -275 -277 0
-275 -278 0
-277 -278 0
275 277 278 0
c gate 279 -20 -278 0
-20 -279 0
-278 -279 0
20 278 279 0
c gate 280 274 279 0
274 -280 0
279 -280 0
-274 -279 280 0
c gate 281 -16 17 0
-16 -281 0
17 -281 0
16 -17 281 0
c gate 282 280 281 0
280 -282 0
281 -282 0
-280 -281 282 0
c gate 283 -274 -279 0
-274 -283 0
-279 -283 0
274 279 283 0
c gate 284 20 -275 0
20 -284 0
-275 -284 0
-20 275 284 0
c gate 285 -17 -284 0
-17 -285 0
-284 -285 0
17 284 285 0
c gate 286 -280 285 0
-280 -286 0
285 -286 0
280 -285 286 0
c gate 287 -283 286 0
-283 -287 0
286 -287 0
283 -286 287 0
c gate 288 -282 -287 0
-282 -288 0
-287 -288 0
282 287 288 0
c gate 289 17 37 0
17 -289 0
37 -289 0
-17 -37 289 0
c gate 290 -20 -289 0
-20 -290 0
-289 -290 0
20 289 290 0
c gate 291 -288 -290 0
-288 -291 0
-290 -291 0
288 290 291 0
c gate 292 -273 -291 0
-273 -292 0
-291 -292 0
273 291 292 0
c gate 293 16 20 0
16 -293 0
20 -293 0
-16 -20 293 0
c gate 294 273 -293 0
273 -294 0
-293 -294 0
-273 293 294 0
c gate 295 -7 -294 0
-7 -295 0
-294 -295 0
7 294 295 0
c gate 296 -292 295 0
-292 -296 0
295 -296 0
292 -295 296 0
c gate 297 -16 -20 0
-16 -297 0
-20 -297 0
16 20 297 0
c gate 298 -293 -297 0
-293 -298 0
-297 -298 0
293 297 298 0
c gate 299 -273 -282 0
-273 -299 0
-282 -299 0
273 282 299 0
c gate 300 7 273 0
7 -300 0
273 -300 0
-7 -273 300 0
c gate 301 -287 300 0
-287 -301 0
300 -301 0
287 -300 301 0
c gate 302 -299 -301 0
-299 -302 0
-301 -302 0
299 301 302 0
c gate 303 -298 -302 0
-298 -303 0
-302 -303 0
298 302 303 0
c gate 304 -7 -18 0
-7 -304 0
-18 -304 0
7 18 304 0
c gate 305 -17 -22 0
-17 -305 0
-22 -305 0
17 22 305 0
c gate 306 304 305 0
304 -306 0
305 -306 0
-304 -305 306 0
c gate 307 298 -306 0
298 -307 0
-306 -307 0
-298 306 307 0
c gate 308 -14 -42 0
-14 -308 0
-42 -308 0
14 42 308 0
c gate 309 -9 -40 0
-9 -309 0
-40 -309 0
9 40 309 0
c gate 310 308 309 0
308 -310 0
309 -310 0
-308 -309 310 0
c gate 311 -4 -45 0
-4 -311 0
-45 -311 0
4 45 311 0
c gate 312 -15 -21 0
-15 -312 0
-21 -312 0
15 21 312 0
c gate 313 -2 -31 0
-2 -313 0
-31 -313 0
2 31 313 0
c gate 314 312 313 0
312 -314 0
313 -314 0
-312 -313 314 0
c gate 315 311 314 0
311 -315 0
314 -315 0
-311 -314 315 0
c gate 316 310 315 0
310 -316 0
315 -316 0
-310 -315 316 0
c gate 317 -307 316 0
-307 -317 0
316 -317 0
307 -316 317 0
c gate 318 -303 317 0
-303 -318 0
317 -318 0
303 -317 318 0
c gate 319 -296 318 0
-296 -319 0
318 -319 0
296 -318 319 0
c gate 320 -14 -21 0
-14 -320 0
-21 -320 0
14 21 320 0
c gate 321 45 -320 0
45 -321 0
-320 -321 0
-45 320 321 0
c gate 322 -4 14 0
-4 -322 0
14 -322 0
4 -14 322 0
c gate 323 15 322 0
15 -323 0
322 -323 0
-15 -322 323 0
c gate 324 321 -323 0
321 -324 0
-323 -324 0
-321 323 324 0
c gate 325 -311 -324 0
-311 -325 0
-324 -325 0
311 324 325 0
c gate 326 -4 45 0
-4 -326 0
45 -326 0
4 -45 326 0
c gate 327 14 21 0
14 -327 0
21 -327 0
-14 -21 327 0
c gate 328 -326 327 0
-326 -328 0
327 -328 0
326 -327 328 0
c gate 329 -325 -328 0
-325 -329 0
-328 -329 0
325 328 329 0
c gate 330 42 -329 0
42 -330 0
-329 -330 0
-42 329 330 0
c gate 331 4 45 0
4 -331 0
45 -331 0
-4 -45 331 0
c gate 332 15 -331 0
15 -332 0
-331 -332 0
-15 331 332 0
c gate 333 320 -332 0
320 -333 0
-332 -333 0
-320 332 333 0
c gate 334 15 -320 0
15 -334 0
-320 -334 0
-15 320 334 0
c gate 335 -42 311 0
-42 -335 0
311 -335 0
42 -311 335 0
c gate 336 -327 335 0
-327 -336 0
335 -336 0
327 -335 336 0
c gate 337 -334 336 0
-334 -337 0
336 -337 0
334 -336 337 0
c gate 338 -333 -337 0
-333 -338 0
-337 -338 0
333 337 338 0
c gate 339 -330 338 0
-330 -339 0
338 -339 0
330 -338 339 0
c gate 340 42 327 0
42 -340 0
327 -340 0
-42 -327 340 0
c gate 341 321 -340 0
321 -341 0
-340 -341 0
-321 340 341 0
c gate 342 -14 42 0
-14 -342 0
42 -342 0
14 -42 342 0
c gate 343 -331 -342 0
-331 -343 0
-342 -343 0
331 342 343 0
c gate 344 -311 -343 0
-311 -344 0
-343 -344 0
311 343 344 0
c gate 345 -341 344 0
-341 -345 0
344 -345 0
341 -344 345 0
c gate 346 -339 -345 0
-339 -346 0
-345 -346 0
339 345 346 0
c gate 347 312 346 0
312 -347 0
346 -347 0
-312 -346 347 0
c gate 348 9 40 0
9 -348 0
40 -348 0
-9 -40 348 0
c gate 349 14 42 0
14 -349 0
42 -349 0
-14 -42 349 0
c gate 350 -2 -37 0
-2 -350 0
-37 -350 0
2 37 350 0
c gate 351 -349 350 0
-349 -351 0
350 -351 0
349 -350 351 0
c gate 352 -348 351 0
-348 -352 0
351 -352 0
348 -351 352 0
c gate 353 -310 -352 0
-310 -353 0
-352 -353 0
310 352 353 0
c gate 354 2 37 0
2 -354 0
37 -354 0
-2 -37 354 0
c gate 355 -308 -309 0
-308 -355 0
-309 -355 0
308 309 355 0
c gate 356 -354 -355 0
-354 -356 0
-355 -356 0
354 355 356 0
c gate 357 -353 356 0
-353 -357 0
356 -357 0
353 -356 357 0
c gate 358 37 348 0
37 -358 0
348 -358 0
-37 -348 358 0
c gate 359 -309 -358 0
-309 -359 0
-358 -359 0
309 358 359 0
c gate 360 -2 -359 0
-2 -360 0
-359 -360 0
2 359 360 0
c gate 361 9 -40 0
9 -361 0
-40 -361 0
-9 40 361 0
c gate 362 354 361 0
354 -362 0
361 -362 0
-354 -361 362 0
c gate 363 349 -362 0
349 -363 0
-362 -363 0
-349 362 363 0
c gate 364 -360 363 0
-360 -364 0
363 -364 0
360 -363 364 0
c gate 365 -357 -364 0
-357 -365 0
-364 -365 0
357 364 365 0
c gate 366 -35 50 0
-35 -366 0
50 -366 0
35 -50 366 0
c gate 367 -20 -31 0
-20 -367 0
-31 -367 0
20 31 367 0
c gate 368 304 367 0
304 -368 0
367 -368 0
-304 -367 368 0
c gate 369 -366 368 0
-366 -369 0
368 -369 0
366 -368 369 0
c gate 370 -365 369 0
-365 -370 0
369 -370 0
365 -369 370 0
c gate 371 -16 50 0
-16 -371 0
50 -371 0
16 -50 371 0
c gate 372 305 371 0
305 -372 0
371 -372 0
-305 -371 372 0
c gate 373 370 372 0
370 -373 0
372 -373 0
-370 -372 373 0
c gate 374 311 373 0
311 -374 0
373 -374 0
-311 -373 374 0
c gate 375 331 -373 0
331 -375 0
-373 -375 0
-331 373 375 0
c gate 376 -374 -375 0
-374 -376 0
-375 -376 0
374 375 376 0
c gate 377 347 -376 0
347 -377 0
-376 -377 0
-347 376 377 0
c gate 378 17 377 0
17 -378 0
377 -378 0
-17 -377 378 0
c gate 379 19 -378 0
19 -379 0
-378 -379 0
-19 378 379 0
c gate 380 -319 -379 0
-319 -380 0
-379 -380 0
319 379 380 0
c gate 381 -50 -380 0
-50 -381 0
-380 -381 0
50 380 381 0
c gate 382 -17 -377 0
-17 -382 0
-377 -382 0
17 377 382 0
c gate 383 -319 -382 0
-319 -383 0
-382 -383 0
319 382 383 0
c gate 384 35 -383 0
35 -384 0
-383 -384 0
-35 383 384 0
c gate 385 -381 -384 0
-381 -385 0
-384 -385 0
381 384 385 0
c gate 386 19 378 0
19 -386 0
378 -386 0
-19 -378 386 0
c gate 387 -17 -19 0
-17 -387 0
-19 -387 0
17 19 387 0
c gate 388 50 -387 0
50 -388 0
-387 -388 0
-50 387 388 0
c gate 389 -377 -388 0
-377 -389 0
-388 -389 0
377 388 389 0
c gate 390 319 -389 0
319 -390 0
-389 -390 0
-319 389 390 0
c gate 391 -386 390 0
-386 -391 0
390 -391 0
386 -390 391 0
c gate 392 -385 -391 0
-385 -392 0
-391 -392 0
385 391 392 0
c gate 393 -19 35 0
-19 -393 0
35 -393 0
19 -35 393 0
c gate 394 377 393 0
377 -394 0
393 -394 0
-377 -393 394 0
c gate 395 17 -394 0
17 -395 0
-394 -395 0
-17 394 395 0
c gate 396 319 -387 0
319 -396 0
-387 -396 0
-319 387 396 0
c gate 397 -395 396 0
-395 -397 0
396 -397 0
395 -396 397 0
c gate 398 -17 35 0
-17 -398 0
35 -398 0
17 -35 398 0
c gate 399 19 -398 0
19 -399 0
-398 -399 0
-19 398 399 0
c gate 400 -377 399 0
-377 -400 0
399 -400 0
377 -399 400 0
c gate 401 -397 -400 0
-397 -401 0
-400 -401 0
397 400 401 0
c gate 402 50 -401 0
50 -402 0
-401 -402 0
-50 401 402 0
c gate 403 19 -382 0
19 -403 0
-382 -403 0
-19 382 403 0
c gate 404 319 -377 0
319 -404 0
-377 -404 0
-319 377 404 0
c gate 405 -50 -378 0
-50 -405 0
-378 -405 0
50 378 405 0
c gate 406 -404 405 0
-404 -406 0
405 -406 0
404 -405 406 0
c gate 407 -403 406 0
-403 -407 0
406 -407 0
403 -406 407 0
c gate 408 -402 -407 0
-402 -408 0
-407 -408 0
402 407 408 0
c gate 409 -392 408 0
-392 -409 0
408 -409 0
392 -408 409 0
c gate 410 -319 398 0
-319 -410 0
398 -410 0
319 -398 410 0
c gate 411 19 -410 0
19 -411 0
-410 -411 0
-19 410 411 0
c gate 412 347 374 0
347 -412 0
374 -412 0
-347 -374 412 0
c gate 413 398 -412 0
398 -413 0
-412 -413 0
-398 412 413 0
c gate 414 50 -413 0
50 -414 0
-413 -414 0
-50 413 414 0
c gate 415 -411 414 0
-411 -415 0
414 -415 0
411 -414 415 0
c gate 416 -409 -415 0
-409 -416 0
-415 -416 0
409 415 416 0
c gate 417 409 415 0
409 -417 0
415 -417 0
-409 -415 417 0
c gate 418 -416 -417 0
-416 -418 0
-417 -418 0
416 417 418 0
c gate 419 -38 102 0
-38 -419 0
102 -419 0
38 -102 419 0
c gate 420 54 -419 0
54 -420 0
-419 -420 0
-54 419 420 0
c gate 421 38 44 0
38 -421 0
44 -421 0
-38 -44 421 0
c gate 422 178 -421 0
178 -422 0
-421 -422 0
-178 421 422 0
c gate 423 -420 -422 0
-420 -423 0
-422 -423 0
420 422 423 0
c gate 424 -48 102 0
-48 -424 0
102 -424 0
48 -102 424 0
c gate 425 -105 -424 0
-105 -425 0
-424 -425 0
105 424 425 0
c gate 426 68 -425 0
68 -426 0
-425 -426 0
-68 425 426 0
c gate 427 -423 426 0
-423 -427 0
426 -427 0
423 -426 427 0
c gate 428 -228 -252 0
-228 -428 0
-252 -428 0
228 252 428 0
c gate 429 227 250 0
227 -429 0
250 -429 0
-227 -250 429 0
c gate 430 -428 -429 0
-428 -430 0
-429 -430 0
428 429 430 0
c gate 431 105 -260 0
105 -431 0
-260 -431 0
-105 260 431 0
c gate 432 103 431 0
103 -432 0
431 -432 0
-103 -431 432 0
c gate 433 -40 -276 0
-40 -433 0
-276 -433 0
40 276 433 0
c gate 434 412 -433 0
412 -434 0
-433 -434 0
-412 433 434 0
c gate 435 16 366 0
16 -435 0
366 -435 0
-16 -366 435 0
c gate 436 -434 -435 0
-434 -436 0
-435 -436 0
434 435 436 0
c gate 437 -16 31 0
-16 -437 0
31 -437 0
16 -31 437 0
c gate 438 -7 437 0
-7 -438 0
437 -438 0
7 -437 438 0
c gate 439 433 -437 0
433 -439 0
-437 -439 0
-433 437 439 0
c gate 440 -438 -439 0
-438 -440 0
-439 -440 0
438 439 440 0
c gate 441 377 440 0
377 -441 0
440 -441 0
-377 -440 441 0
c gate 442 -16 -377 0
-16 -442 0
-377 -442 0
16 377 442 0
c gate 443 366 -442 0
366 -443 0
-442 -443 0
-366 442 443 0
c gate 444 -441 443 0
-441 -444 0
443 -444 0
441 -443 444 0
c gate 445 -366 377 0
-366 -445 0
377 -445 0
366 -377 445 0
c gate 446 -31 40 0
-31 -446 0
40 -446 0
31 -40 446 0
c gate 447 275 446 0
275 -447 0
446 -447 0
-275 -446 447 0
c gate 448 445 447 0
445 -448 0
447 -448 0
-445 -447 448 0
c gate 449 -444 -448 0
-444 -449 0
-448 -449 0
444 448 449 0
c gate 450 -436 -449 0
-436 -450 0
-449 -450 0
436 449 450 0
c gate 451 436 449 0
436 -451 0
449 -451 0
-436 -449 451 0
c gate 452 -450 -451 0
-450 -452 0
-451 -452 0
450 451 452 0
c gate 453 -22 37 0
-22 -453 0
37 -453 0
22 -37 453 0
c gate 454 370 453 0
370 -454 0
453 -454 0
-370 -453 454 0
c gate 455 445 454 0
445 -455 0
454 -455 0
-445 -454 455 0
c gate 456 22 -35 0
22 -456 0
-35 -456 0
-22 35 456 0
c gate 457 50 456 0
50 -457 0
456 -457 0
-50 -456 457 0
c gate 458 37 412 0
37 -458 0
412 -458 0
-37 -412 458 0
c gate 459 -457 -458 0
-457 -459 0
-458 -459 0
457 458 459 0
c gate 460 -37 377 0
-37 -460 0
377 -460 0
37 -377 460 0
c gate 461 457 -460 0
457 -461 0
-460 -461 0
-457 460 461 0
c gate 462 -459 -461 0
-459 -462 0
-461 -462 0
459 461 462 0
c gate 463 -455 -462 0
-455 -463 0
-462 -463 0
455 462 463 0
c gate 464 412 455 0
412 -464 0
455 -464 0
-412 -455 464 0
c gate 465 -463 -464 0
-463 -465 0
-464 -465 0
463 464 465 0
c gate 466 -2 -7 0
-2 -466 0
-7 -466 0
2 7 466 0
c gate 467 -22 -37 0
-22 -467 0
-37 -467 0
22 37 467 0
c gate 468 466 -467 0
466 -468 0
-467 -468 0
-466 467 468 0
c gate 469 -466 467 0
-466 -469 0
467 -469 0
466 -467 469 0
c gate 470 -468 -469 0
-468 -470 0
-469 -470 0
468 469 470 0
c gate 471 -1 35 0
-1 -471 0
35 -471 0
1 -35 471 0
c gate 472 50 471 0
50 -472 0
471 -472 0
-50 -471 472 0
c gate 473 -470 472 0
-470 -473 0
472 -473 0
470 -472 473 0
c gate 474 319 473 0
319 -474 0
473 -474 0
-319 -473 474 0
c gate 475 1 366 0
1 -475 0
366 -475 0
-1 -366 475 0
c gate 476 -319 475 0
-319 -476 0
475 -476 0
319 -475 476 0
c gate 477 -474 -476 0
-474 -477 0
-476 -477 0
474 476 477 0
c gate 478 -37 360 0
-37 -478 0
360 -478 0
37 -360 478 0
c gate 479 22 -354 0
22 -479 0
-354 -479 0
-22 354 479 0
c gate 480 348 479 0
348 -480 0
479 -480 0
-348 -479 480 0
c gate 481 -478 -480 0
-478 -481 0
-480 -481 0
478 480 481 0
c gate 482 346 -481 0
346 -482 0
-481 -482 0
-346 481 482 0
c gate 483 373 482 0
373 -483 0
482 -483 0
-373 -482 483 0
c gate 484 -477 483 0
-477 -484 0
483 -484 0
477 -483 484 0
c gate 485 -27 -38 0
-27 -485 0
-38 -485 0
27 38 485 0
c gate 486 40 485 0
40 -486 0
485 -486 0
-40 -485 486 0
c gate 487 -7 -9 0
-7 -487 0
-9 -487 0
7 9 487 0
c gate 488 23 -26 0
23 -488 0
-26 -488 0
-23 26 488 0
c gate 489 487 488 0
487 -489 0
488 -489 0
-487 -488 489 0
c gate 490 398 489 0
398 -490 0
489 -490 0
-398 -489 490 0
c gate 491 486 490 0
486 -491 0
490 -491 0
-486 -490 491 0
c gate 492 280 491 0
280 -492 0
491 -492 0
-280 -491 492 0
c gate 493 18 -22 0
18 -493 0
-22 -493 0
-18 22 493 0
c gate 494 35 493 0
35 -494 0
493 -494 0
-35 -493 494 0
c gate 495 -456 -494 0
-456 -495 0
-494 -495 0
456 494 495 0
c gate 496 9 -495 0
9 -496 0
-495 -496 0
-9 495 496 0
c gate 497 20 21 0
20 -497 0
21 -497 0
-20 -21 497 0
c gate 498 -14 -497 0
-14 -498 0
-497 -498 0
14 497 498 0
c gate 499 -35 -498 0
-35 -499 0
-498 -499 0
35 498 499 0
c gate 500 16 35 0
16 -500 0
35 -500 0
-16 -35 500 0
c gate 501 18 37 0
18 -501 0
37 -501 0
-18 -37 501 0
c gate 502 -500 501 0
-500 -502 0
501 -502 0
500 -501 502 0
c gate 503 -499 -502 0
-499 -503 0
-502 -503 0
499 502 503 0
c gate 504 -496 503 0
-496 -504 0
503 -504 0
496 -503 504 0
c gate 505 -492 504 0
-492 -505 0
504 -505 0
492 -504 505 0
c gate 506 50 -505 0
50 -506 0
-505 -506 0
-50 505 506 0
c gate 507 2 7 0
2 -507 0
7 -507 0
-2 -7 507 0
c gate 508 21 507 0
21 -508 0
507 -508 0
-21 -507 508 0
c gate 509 -50 508 0
-50 -509 0
508 -509 0
50 -508 509 0
c gate 510 -506 -509 0
-506 -510 0
-509 -510 0
506 509 510 0
c gate 511 319 -510 0
319 -511 0
-510 -511 0
-319 510 511 0
c gate 512 11 -46 0
11 -512 0
-46 -512 0
-11 46 512 0
c gate 513 12 -13 0
12 -513 0
-13 -513 0
-12 13 513 0
c gate 514 -11 513 0
-11 -514 0
513 -514 0
11 -513 514 0
c gate 515 43 514 0
43 -515 0
514 -515 0
-43 -514 515 0
c gate 516 12 -48 0
12 -516 0
-48 -516 0
-12 48 516 0
c gate 517 -11 -516 0
-11 -517 0
-516 -517 0
11 516 517 0
c gate 518 -513 -517 0
-513 -518 0
-517 -518 0
513 517 518 0
c gate 519 -515 -518 0
-515 -519 0
-518 -519 0
515 518 519 0
c gate 520 -13 -41 0
-13 -520 0
-41 -520 0
13 41 520 0
c gate 521 -11 -12 0
-11 -521 0
-12 -521 0
11 12 521 0
c gate 522 -520 521 0
-520 -522 0
521 -522 0
520 -521 522 0
c gate 523 519 -522 0
519 -523 0
-522 -523 0
-519 522 523 0
c gate 524 28 46 0
28 -524 0
46 -524 0
-28 -46 524 0
c gate 525 -8 -524 0
-8 -525 0
-524 -525 0
8 524 525 0
c gate 526 -28 -46 0
-28 -526 0
-46 -526 0
28 46 526 0
c gate 527 8 -11 0
8 -527 0
-11 -527 0
-8 11 527 0
c gate 528 -526 527 0
-526 -528 0
527 -528 0
526 -527 528 0
c gate 529 -525 -528 0
-525 -529 0
-528 -529 0
525 528 529 0
c gate 530 523 529 0
523 -530 0
529 -530 0
-523 -529 530 0
c gate 531 -512 -530 0
-512 -531 0
-530 -531 0
512 530 531 0
c gate 532 -12 -531 0
-12 -532 0
-531 -532 0
12 531 532 0
c gate 533 11 12 0
11 -533 0
12 -533 0
-11 -12 533 0
c gate 534 -521 -533 0
-521 -534 0
-533 -534 0
521 533 534 0
c gate 535 -8 -534 0
-8 -535 0
-534 -535 0
8 534 535 0
c gate 536 -523 535 0
-523 -536 0
535 -536 0
523 -535 536 0
c gate 537 11 -28 0
11 -537 0
-28 -537 0
-11 28 537 0
c gate 538 12 -537 0
12 -538 0
-537 -538 0
-12 537 538 0
c gate 539 28 527 0
28 -539 0
527 -539 0
-28 -527 539 0
c gate 540 -538 -539 0
-538 -540 0
-539 -540 0
538 539 540 0
c gate 541 523 -540 0
523 -541 0
-540 -541 0
-523 540 541 0
c gate 542 13 -524 0
13 -542 0
-524 -542 0
-13 524 542 0
c gate 543 533 542 0
533 -543 0
542 -543 0
-533 -542 543 0
c gate 544 -541 -543 0
-541 -544 0
-543 -544 0
541 543 544 0
c gate 545 -536 544 0
-536 -545 0
544 -545 0
536 -544 545 0
c gate 546 -532 545 0
-532 -546 0
545 -546 0
532 -545 546 0
c gate 547 12 519 0
12 -547 0
519 -547 0
-12 -519 547 0
c gate 548 -546 -547 0
-546 -548 0
-547 -548 0
546 547 548 0
c gate 549 -12 -523 0
-12 -549 0
-523 -549 0
12 523 549 0
c gate 550 545 -549 0
545 -550 0
-549 -550 0
-545 549 550 0
c gate 551 -548 -550 0
-548 -551 0
-550 -551 0
548 550 551 0
c gate 552 11 39 0
11 -552 0
39 -552 0
-11 -39 552 0
c gate 553 -12 -552 0
-12 -553 0
-552 -553 0
12 552 553 0
c gate 554 -522 553 0
-522 -554 0
553 -554 0
522 -553 554 0
c gate 555 -12 13 0
-12 -555 0
13 -555 0
12 -13 555 0
c gate 556 -515 -555 0
-515 -556 0
-555 -556 0
515 555 556 0
c gate 557 -554 556 0
-554 -557 0
556 -557 0
554 -556 557 0
c gate 558 546 -557 0
546 -558 0
-557 -558 0
-546 557 558 0
c gate 559 -514 523 0
-514 -559 0
523 -559 0
514 -523 559 0
c gate 560 13 -39 0
13 -560 0
-39 -560 0
-13 39 560 0
c gate 561 -552 -560 0
-552 -561 0
-560 -561 0
552 560 561 0
c gate 562 -519 561 0
-519 -562 0
561 -562 0
519 -561 562 0
c gate 563 -559 -562 0
-559 -563 0
-562 -563 0
559 562 563 0
c gate 564 12 -563 0
12 -564 0
-563 -564 0
-12 563 564 0
c gate 565 -546 564 0
-546 -565 0
564 -565 0
546 -564 565 0
c gate 566 -558 -565 0
-558 -566 0
-565 -566 0
558 565 566 0
c gate 567 -551 -566 0
-551 -567 0
-566 -567 0
551 566 567 0
c gate 568 551 566 0
551 -568 0
566 -568 0
-551 -566 568 0
c gate 569 -567 -568 0
-567 -569 0
-568 -569 0
567 568 569 0
c gate 570 11 -39 0
11 -570 0
-39 -570 0
-11 39 570 0
c gate 571 -569 570 0
-569 -571 0
570 -571 0
569 -570 571 0
c gate 572 -511 -571 0
-511 -572 0
-571 -572 0
511 571 572 0
c gate 573 -484 572 0
-484 -573 0
572 -573 0
484 -572 573 0
c gate 574 -465 573 0
-465 -574 0
573 -574 0
465 -573 574 0
c gate 575 -452 574 0
-452 -575 0
574 -575 0
452 -574 575 0
c gate 576 -432 575 0
-432 -576 0
575 -576 0
432 -575 576 0
c gate 577 -430 576 0
-430 -577 0
576 -577 0
430 -576 577 0
c gate 578 -427 577 0
-427 -578 0
577 -578 0
427 -577 578 0
c gate 579 -418 578 0
-418 -579 0
578 -579 0
418 -578 579 0
c gate 580 -272 579 0
-272 -580 0
579 -580 0
272 -579 580 0
c gate 581 -259 580 0
-259 -581 0
580 -581 0
259 -580 581 0
c gate 582 -222 581 0
-222 -582 0
581 -582 0
222 -581 582 0
c gate 583 -196 582 0
-196 -583 0
582 -583 0
196 -582 583 0
c gate 584 -190 583 0
-190 -584 0
583 -584 0
190 -583 584 0
c gate 585 -183 584 0
-183 -585 0
584 -585 0
183 -584 585 0
c PO
-585 0
